\ LP format - for model browsing. Use MPS format to capture full model detail.
\ Signature: 0x1acce5265c16e50a
Minimize
  x_1 + x_2 + x_3 + x_4 + x_5 + x_6 + x_7 + m
Subject To
 R0: x_1 + x_4 + x_5 + x_6 + x_7 >= 5
 R1: x_1 + x_2 + x_5 + x_6 + x_7 >= 6
 R2: x_1 + x_2 + x_3 + x_6 + x_7 >= 7
 R3: x_1 + x_2 + x_3 + x_4 + x_7 >= 3
 R4: x_1 + x_2 + x_3 + x_4 + x_5 >= 3
 R5: x_2 + x_3 + x_4 + x_5 + x_6 >= 2
 R6: x_3 + x_4 + x_5 + x_6 + x_7 >= 2
 R7: x_1 + x_2 + x_3 + x_4 + x_5 + x_6 + x_7 <= 10
 R8: x_1 + x_2 + x_3 + x_4 + x_5 + x_6 + x_7 >= 4
 R9: x_1 + x_2 + x_3 + x_4 + x_5 + x_6 + x_7 <= 10
 R10: x_1 + x_2 + x_3 + x_4 + x_5 + x_6 + x_7 >= 4
 R11: x_1 + x_2 + x_3 + x_4 + x_5 + x_6 + x_7 <= 10
 R12: x_1 + x_2 + x_3 + x_4 + x_5 + x_6 + x_7 >= 4
 R13: x_1 + x_2 + x_3 + x_4 + x_5 + x_6 + x_7 <= 10
 R14: x_1 + x_2 + x_3 + x_4 + x_5 + x_6 + x_7 >= 4
 R15: x_1 + x_2 + x_3 + x_4 + x_5 + x_6 + x_7 <= 10
 R16: x_1 + x_2 + x_3 + x_4 + x_5 + x_6 + x_7 >= 4
 R17: x_1 + x_2 + x_3 + x_4 + x_5 + x_6 + x_7 <= 10
 R18: x_1 + x_2 + x_3 + x_4 + x_5 + x_6 + x_7 >= 4
 R19: x_1 + x_2 + x_3 + x_4 + x_5 + x_6 + x_7 <= 10
 R20: x_1 + x_2 + x_3 + x_4 + x_5 + x_6 + x_7 >= 4
 R21: - 5.5 x_1 - 6 x_2 - 6.5 x_3 - 6.5 x_4 - 6.5 x_5 - 6 x_6 - 5.5 x_7 + m
   = 0
Bounds
Generals
 x_1 x_2 x_3 x_4 x_5 x_6 x_7
End
